general:
 System = diamond Si 
# ICHARG=11 #charge read file
 ENCUT  =    240
 ISMEAR = 0; SIGMA = 0.1;
 LORBIT=11
#masaru
 ISTART= 0
 ICHERGE= 2
