 my lattice
    1.000000000000000E+01
    0.542000000000000E+00    0.000000000000000E+00    0.000000000000000E+00
    0.000000000000000E+00    0.542000000000000E+00    0.000000000000000E+00
    0.000000000000000E+00    0.000000000000000E+00    0.542000000000000E+00
         8
 Direct
    0.000000000000000E+00    0.000000000000000E+00    0.000000000000000E+00 T T T
    0.000000000000000E+00    0.500000000000000E+00    0.500000000000000E+00 T T T
    0.500000000000000E+00    0.000000000000000E+00    0.500000000000000E+00 T T T
    0.500000000000000E+00    0.500000000000000E+00    0.000000000000000E+00 T T T
    0.250000000000000E+00    0.250000000000000E+00    0.250000000000000E+00 T T T
    0.250000000000000E+00    0.750000000000000E+00    0.750000000000000E+00 T T T
    0.750000000000000E+00    0.250000000000000E+00    0.750000000000000E+00 T T T
    0.750000000000000E+00    0.750000000000000E+00    0.250000000000000E+00 T T T
